20 380
0 1 91.2
0 2 3.2
0 3 46.6
0 4 102.5
0 5 87.7
0 6 120.4
0 7 79.4
0 8 89.1
0 9 115.7
0 10 117.5
0 11 69.1
0 12 107.0
0 13 92.2
0 14 84.0
0 15 81.0
0 16 77.2
0 17 69.2
0 18 56.4
0 19 83.4
1 2 91.3
1 3 97.1
1 4 66.5
1 5 125.9
1 6 73.8
1 7 50.4
1 8 19.3
1 9 82.0
1 10 73.9
1 11 101.2
1 12 44.0
1 13 21.8
1 14 82.1
1 15 10.4
1 16 104.6
1 17 113.3
1 18 99.5
1 19 19.8
2 3 49.8
2 4 104.6
2 5 90.9
2 6 122.4
2 7 81.3
2 8 89.9
2 9 118.0
2 10 119.6
2 11 72.3
2 12 108.4
2 13 93.1
2 14 86.6
2 15 81.2
2 16 80.4
2 17 72.4
2 18 59.6
2 19 84.2
3 4 75.6
3 5 41.7
3 6 93.5
3 7 60.5
3 8 85.8
3 9 84.0
3 10 89.9
3 11 23.3
3 12 92.0
3 13 87.4
3 14 47.5
3 15 87.3
3 16 31.4
3 17 23.3
3 18 9.9
3 19 81.2
4 5 81.3
4 6 18.2
4 7 25.0
4 8 47.2
4 9 16.5
4 10 15.1
4 11 63.3
4 12 28.8
4 13 44.9
4 14 31.9
4 15 63.4
4 16 61.4
4 17 77.6
4 18 70.8
4 19 48.1
5 6 95.4
5 7 78.7
5 8 110.4
5 9 81.4
5 10 91.6
5 11 25.2
5 12 106.5
5 13 110.6
5 14 50.0
5 15 117.3
5 16 21.6
5 17 18.5
5 18 32.9
5 19 107.1
6 7 41.6
6 8 55.5
6 9 15.3
6 10 3.8
6 11 79.7
6 12 30.3
6 13 52.3
6 14 48.1
6 15 73.1
6 16 76.8
6 17 93.8
6 18 88.2
6 19 58.0
7 8 32.6
7 9 40.9
7 10 39.2
7 11 55.7
7 12 31.5
7 13 32.2
7 14 31.8
7 15 44.4
7 16 57.1
7 17 69.6
7 18 58.6
7 19 30.7
8 9 62.9
8 10 55.2
8 11 86.3
8 12 26.9
8 13 3.8
8 14 64.3
8 15 17.9
8 16 88.8
8 17 99.3
8 18 86.5
8 19 5.7
9 10 12.1
9 11 67.8
9 12 41.1
9 13 60.3
9 14 36.8
9 15 79.5
9 16 64.0
9 17 81.5
9 18 77.6
9 19 64.3
10 11 76.0
10 12 31.0
10 13 52.2
10 14 44.3
10 15 72.6
10 16 73.0
10 17 90.0
10 18 84.5
10 19 57.4
11 12 85.4
11 13 86.9
11 14 31.7
11 15 92.4
11 16 8.1
11 17 14.4
11 18 13.5
11 19 82.8
12 13 23.3
12 14 56.7
12 15 44.8
12 16 85.4
12 17 99.7
12 18 89.8
12 19 30.8
13 14 63.7
13 15 21.5
13 16 89.0
13 17 100.1
13 18 87.7
13 19 9.2
14 15 75.3
14 16 29.5
14 17 45.9
14 18 40.8
14 19 62.3
15 16 96.2
15 17 104.1
15 18 90.0
15 19 15.3
16 17 17.9
16 18 21.5
16 19 85.6
17 18 15.3
17 19 95.5
18 19 82.3
